data/lp_files/pEFS/30_4.lp
\ Model foo
\ LP format - for model browsing. Use MPS format to capture full model detail.
Minimize
  z
Subject To
 allocateEach[1]: x[1,1] + x[2,1] = 1
 allocateEach[2]: x[1,2] + x[2,2] = 1
 allocateEach[3]: x[1,3] + x[2,3] = 1
 allocateEach[4]: x[1,4] + x[2,4] = 1
 allocateEach[5]: x[1,5] + x[2,5] = 1
 allocateEach[6]: x[1,6] + x[2,6] = 1
 allocateEach[7]: x[1,7] + x[2,7] = 1
 allocateEach[8]: x[1,8] + x[2,8] = 1
 allocateEach[9]: x[1,9] + x[2,9] = 1
 allocateEach[10]: x[1,10] + x[2,10] = 1
 allocateAllCash: cashProportion[1] + cashProportion[2] = 1
 findWorstP[1,2]: z + 0.0488090589613432 cashProportion[1]
   - 0.0488090589613432 cashProportion[2] + 0.1833658727059743 x[1,1]
   + 0.0447090980085904 x[1,2] + 0.1258883248730965 x[1,3]
   + 0.086626317844592 x[1,4] + 0.0096837172979305 x[1,5]
   + 0.1734478719250293 x[1,6] + 0.0699336196798126 x[1,7]
   + 0.0355525185474424 x[1,8] + 0.1129441624365482 x[1,9]
   + 0.1090394377196408 x[1,10] - 0.1833658727059743 x[2,1]
   - 0.0447090980085904 x[2,2] - 0.1258883248730965 x[2,3]
   - 0.086626317844592 x[2,4] - 0.0096837172979305 x[2,5]
   - 0.1734478719250293 x[2,6] - 0.0699336196798126 x[2,7]
   - 0.0355525185474424 x[2,8] - 0.1129441624365482 x[2,9]
   - 0.1090394377196408 x[2,10] >= 0
 findWorstP[2,1]: z - 0.0445156695156695 cashProportion[1]
   + 0.0445156695156695 cashProportion[2] - 0.0263176638176638 x[1,1]
   - 0.115491452991453 x[1,2] - 0.0891737891737892 x[1,3]
   - 0.0768340455840456 x[1,4] - 0.1163283475783476 x[1,5]
   - 0.1228988603988604 x[1,6] - 0.1387464387464388 x[1,7]
   - 0.0422364672364672 x[1,8] - 0.0500890313390313 x[1,9]
   - 0.1773682336182336 x[1,10] + 0.0263176638176638 x[2,1]
   + 0.115491452991453 x[2,2] + 0.0891737891737892 x[2,3]
   + 0.0768340455840456 x[2,4] + 0.1163283475783476 x[2,5]
   + 0.1228988603988604 x[2,6] + 0.1387464387464388 x[2,7]
   + 0.0422364672364672 x[2,8] + 0.0500890313390313 x[2,9]
   + 0.1773682336182336 x[2,10] >= 0
Bounds
 z <= 1
 -infinity <= cashProportion[1] <= 1
 -infinity <= cashProportion[2] <= 1
Binaries
 x[1,1] x[1,2] x[1,3] x[1,4] x[1,5] x[1,6] x[1,7] x[1,8] x[1,9] x[1,10]
 x[2,1] x[2,2] x[2,3] x[2,4] x[2,5] x[2,6] x[2,7] x[2,8] x[2,9] x[2,10]
End
