data/mps_files/q3/30_4.mps
NAME foo
ROWS
 N  OBJ
 E  allocateEach[1]
 E  allocateEach[2]
 E  allocateEach[3]
 E  allocateEach[4]
 E  allocateEach[5]
 E  allocateEach[6]
 E  allocateEach[7]
 E  allocateEach[8]
 E  allocateEach[9]
 E  allocateEach[10]
 E  allocateAllCash
 G  findWorstP[1,2]
 G  findWorstP[2,1]
COLUMNS
    z         OBJ       1
    z         findWorstP[1,2]  1
    z         findWorstP[2,1]  1
    cashProportion[1]  allocateAllCash  1
    cashProportion[1]  findWorstP[1,2]  4.8809058961343230e-02
    cashProportion[1]  findWorstP[2,1]  -4.4515669515669522e-02
    cashProportion[2]  allocateAllCash  1
    cashProportion[2]  findWorstP[1,2]  -4.8809058961343230e-02
    cashProportion[2]  findWorstP[2,1]  4.4515669515669522e-02
    MARKER    'MARKER'                 'INTORG'
    x[1,1]    allocateEach[1]  1
    x[1,1]    findWorstP[1,2]  1.8336587270597426e-01
    x[1,1]    findWorstP[2,1]  -2.6317663817663820e-02
    x[1,2]    allocateEach[2]  1
    x[1,2]    findWorstP[1,2]  0.0447090980085904
    x[1,2]    findWorstP[2,1]  -0.115491452991453
    x[1,3]    allocateEach[3]  1
    x[1,3]    findWorstP[1,2]  1.2588832487309645e-01
    x[1,3]    findWorstP[2,1]  -0.0891737891737892
    x[1,4]    allocateEach[4]  1
    x[1,4]    findWorstP[1,2]  8.6626317844591960e-02
    x[1,4]    findWorstP[2,1]  -0.0768340455840456
    x[1,5]    allocateEach[5]  1
    x[1,5]    findWorstP[1,2]  9.6837172979304959e-03
    x[1,5]    findWorstP[2,1]  -1.1632834757834759e-01
    x[1,6]    allocateEach[6]  1
    x[1,6]    findWorstP[1,2]  1.7344787192502931e-01
    x[1,6]    findWorstP[2,1]  -1.2289886039886042e-01
    x[1,7]    allocateEach[7]  1
    x[1,7]    findWorstP[1,2]  6.9933619679812584e-02
    x[1,7]    findWorstP[2,1]  -1.3874643874643877e-01
    x[1,8]    allocateEach[8]  1
    x[1,8]    findWorstP[1,2]  3.5552518547442409e-02
    x[1,8]    findWorstP[2,1]  -4.2236467236467241e-02
    x[1,9]    allocateEach[9]  1
    x[1,9]    findWorstP[1,2]  1.1294416243654824e-01
    x[1,9]    findWorstP[2,1]  -5.0089031339031344e-02
    x[1,10]   allocateEach[10]  1
    x[1,10]   findWorstP[1,2]  1.0903943771964078e-01
    x[1,10]   findWorstP[2,1]  -1.7736823361823364e-01
    x[2,1]    allocateEach[1]  1
    x[2,1]    findWorstP[1,2]  -1.8336587270597426e-01
    x[2,1]    findWorstP[2,1]  2.6317663817663820e-02
    x[2,2]    allocateEach[2]  1
    x[2,2]    findWorstP[1,2]  -0.0447090980085904
    x[2,2]    findWorstP[2,1]  0.115491452991453
    x[2,3]    allocateEach[3]  1
    x[2,3]    findWorstP[1,2]  -1.2588832487309645e-01
    x[2,3]    findWorstP[2,1]  0.0891737891737892
    x[2,4]    allocateEach[4]  1
    x[2,4]    findWorstP[1,2]  -8.6626317844591960e-02
    x[2,4]    findWorstP[2,1]  0.0768340455840456
    x[2,5]    allocateEach[5]  1
    x[2,5]    findWorstP[1,2]  -9.6837172979304959e-03
    x[2,5]    findWorstP[2,1]  1.1632834757834759e-01
    x[2,6]    allocateEach[6]  1
    x[2,6]    findWorstP[1,2]  -1.7344787192502931e-01
    x[2,6]    findWorstP[2,1]  1.2289886039886042e-01
    x[2,7]    allocateEach[7]  1
    x[2,7]    findWorstP[1,2]  -6.9933619679812584e-02
    x[2,7]    findWorstP[2,1]  1.3874643874643877e-01
    x[2,8]    allocateEach[8]  1
    x[2,8]    findWorstP[1,2]  -3.5552518547442409e-02
    x[2,8]    findWorstP[2,1]  4.2236467236467241e-02
    x[2,9]    allocateEach[9]  1
    x[2,9]    findWorstP[1,2]  -1.1294416243654824e-01
    x[2,9]    findWorstP[2,1]  5.0089031339031344e-02
    x[2,10]   allocateEach[10]  1
    x[2,10]   findWorstP[1,2]  -1.0903943771964078e-01
    x[2,10]   findWorstP[2,1]  1.7736823361823364e-01
    MARKER    'MARKER'                 'INTEND'
RHS
    RHS1      allocateEach[1]  1
    RHS1      allocateEach[2]  1
    RHS1      allocateEach[3]  1
    RHS1      allocateEach[4]  1
    RHS1      allocateEach[5]  1
    RHS1      allocateEach[6]  1
    RHS1      allocateEach[7]  1
    RHS1      allocateEach[8]  1
    RHS1      allocateEach[9]  1
    RHS1      allocateEach[10]  1
    RHS1      allocateAllCash  1
BOUNDS
 UP BND1      z         1
 MI BND1      cashProportion[1]
 UP BND1      cashProportion[1]  1
 MI BND1      cashProportion[2]
 UP BND1      cashProportion[2]  1
 BV BND1      x[1,1]  
 BV BND1      x[1,2]  
 BV BND1      x[1,3]  
 BV BND1      x[1,4]  
 BV BND1      x[1,5]  
 BV BND1      x[1,6]  
 BV BND1      x[1,7]  
 BV BND1      x[1,8]  
 BV BND1      x[1,9]  
 BV BND1      x[1,10] 
 BV BND1      x[2,1]  
 BV BND1      x[2,2]  
 BV BND1      x[2,3]  
 BV BND1      x[2,4]  
 BV BND1      x[2,5]  
 BV BND1      x[2,6]  
 BV BND1      x[2,7]  
 BV BND1      x[2,8]  
 BV BND1      x[2,9]  
 BV BND1      x[2,10] 
ENDATA
